171731.0
1943
3 5 12 13 18 21 22 24 26 29 30 33 35 36 37 38 39 41 44 51 52 55 56 57 58 62 63 68 71 76 78 81 82 85 87 89 92 93 94 95 103 105 109 115 119 121 122 123 125 127 128 130 131 132 133 134 135 137 141 143 144 145 147 150 151 153 158 160 165 167 169 172 174 176 178 180 182 183 184 186 188 191 192 193 194 198 199 